
 &CONTROL
    calculation = 'nscf'
    restart_mode='from_scratch',
    prefix='agnr',
    etot_conv_thr=1.D-5
    forc_conv_thr=1.D-4
    pseudo_dir = '/s3_home/aferretti//Pseudo/'
    outdir = './SCRATCH/'
    verbosity="high"
    wf_collect = .TRUE.
 /
 &SYSTEM
      ibrav=8,
      celldm(1)=60.000,
      celldm(2)=0.6666666666667,
      celldm(3)=0.1344539967168,
      nat=18,
      ntyp=2,
      ecutwfc=45.0,
      nbnd = 400
 /

 &ELECTRONS
      electron_maxstep = 100,
      conv_thr = 1.0d-8
      mixing_mode = 'plain'
      mixing_beta = 0.3d0
 /
ATOMIC_SPECIES
C   12.011    C.pz-vbc.UPF
H    1.008    H.pz-vbc.UPF
ATOMIC_POSITIONS (angstrom)
H       -4.612436766    0.000000000   -1.197104646
H       -4.612436766    0.000000000    1.217104646
C       -3.652318240    0.000000000   -0.672198525
C       -3.652318240    0.000000000    0.692198525
C       -2.452066899    0.000000000   -1.409289479
C       -2.452066899    0.000000000    1.429289479
C       -1.229204655    0.000000000   -0.702402791
C       -1.229204655    0.000000000    0.722402791
C        0.000000000    0.000000000   -1.418219896
C        0.000000000    0.000000000    1.438219896
C        1.229204655    0.000000000   -0.702402791
C        1.229204655    0.000000000    0.722402791
C        2.452066899    0.000000000   -1.409289479
C        2.452066899    0.000000000    1.429289479
C        3.652318240    0.000000000   -0.672198525
C        3.652318240    0.000000000    0.692198525
H        4.612436766    0.000000000   -1.197104646
H        4.612436766    0.000000000    1.217104646
K_POINTS (automatic)
1 1 30  0  0  0
